WARNING: for repeatability, setting FPU to use double precision
============================[ Problem Statistics ]=============================
|                                                                             |
|  Number of variables:       2072718                                         |
|  Number of clauses:        23155606                                         |
|  Parse time:                   3.87 s                                       |
|  Eliminated clauses:         100.86 Mb                                      |
|  Simplification time:        139.26 s                                       |
|                                                                             |
============================[ Search Statistics ]==============================
| Conflicts |          ORIGINAL         |          LEARNT          | Progress |
|           |    Vars  Clauses Literals |    Limit  Clauses Lit/Cl |          |
===============================================================================
|       100 |  714679  7709916 74474974 |  2826969      100     66 | 15.930 % |
|       250 |  714679  7709916 74474974 |  3109666      250    450 | 15.930 % |
|       475 |  714678  7709916 74474974 |  3420632      474    710 | 15.930 % |
|       812 |  714668  7709916 74474974 |  3762696      801   1977 | 15.931 % |
|      1318 |  714609  7709916 74474974 |  4138965     1251   2015 | 15.933 % |
|      2077 |  714482  7709448 74474038 |  4552862     1926   1987 | 15.940 % |
|      3216 |  714197  7708758 74472658 |  5008148     2826   2160 | 15.953 % |
|      4924 |  713931  7707139 74469416 |  5508963     4174   2209 | 15.966 % |
===============================================================================
restarts              : 30
conflicts             : 5632           (32 /sec)
decisions             : 2971919        (0.00 % random) (16867 /sec)
propagations          : 270748634      (1536666 /sec)
conflict literals     : 9878377        (28.79 % deleted)
Memory used           : 3778.00 MB
CPU time              : 176.192 s

UNSATISFIABLE
MiniSat a returnat un cod de eroare 20 pentru fișierul e8abb9c83efdd96a99990f3b914ea873-linked_list_swap_contents_safety_unwind57.cnf.
